NAME : ft53.tour
COMMENT : Optimum tour for ft53.tsp (Length 6905)
TYPE : TOUR
DIMENSION : 53
TOUR_SECTION  
0
0
0
0
0
0
0
0
0
0
0
0
0
0
0
0
0
0
0
0
0
0
0
0
0
0
0
0
0
0
0
0
0
0
0
0
0
0
0
0
0
0
0
0
0
0
0
0
0
0
0
0
0
-1
EOF
